presolving:
   (0.0s) running MILP presolver
   (0.1s) MILP presolver found nothing
(round 1, exhaustive) 0 del vars, 0 del conss, 0 add conss, 0 chg bounds, 0 chg sides, 13 chg coeffs, 330 upgd conss, 0 impls, 300 clqs
(round 2, fast)       0 del vars, 0 del conss, 0 add conss, 0 chg bounds, 0 chg sides, 3926 chg coeffs, 330 upgd conss, 0 impls, 300 clqs
(round 3, medium)     0 del vars, 13 del conss, 3900 add conss, 0 chg bounds, 0 chg sides, 3926 chg coeffs, 330 upgd conss, 0 impls, 9300 clqs
   (0.3s) probing: 51/9030 (0.6%) - 0 fixings, 0 aggregations, 0 implications, 0 bound changes
   (0.3s) probing aborted: 50/50 successive totally useless probings
   (0.3s) symmetry computation started: requiring (bin +, int -, cont +), (fixed: bin -, int +, cont -)
   (0.3s) no symmetry present
presolving (4 rounds: 4 fast, 3 medium, 2 exhaustive):
 0 deleted vars, 13 deleted constraints, 3900 added constraints, 0 tightened bounds, 0 added holes, 0 changed sides, 3926 changed coefficients
 0 implications, 9300 cliques
presolved problem has 9030 variables (9030 bin, 0 int, 0 impl, 0 cont) and 4217 constraints
     17 constraints of type <knapsack>
   4200 constraints of type <setppc>
transformed objective value is always integral (scale: 1)
Presolving Time: 0.31

 time | node  | left  |LP iter|LP it/n|mem/heur|mdpt |vars |cons |rows |cuts |sepa|confs|strbr|  dualbound   | primalbound  |  gap   | compl. 
p 0.4s|     1 |     0 |     0 |     - |  clique|   0 |9030 |4217 |4217 |   0 |  0 |   0 |   0 | 0.000000e+00 | 7.227900e+04 |    Inf | unknown
  0.9s|     1 |     0 |   882 |     - |    99M |   0 |9030 |4232 |4217 |   0 |  0 |  15 |   0 | 3.206811e+04 | 7.227900e+04 | 125.39%| unknown
r 0.9s|     1 |     0 |   882 |     - |simplero|   0 |9030 |4232 |4217 |   0 |  0 |  15 |   0 | 3.206811e+04 | 5.786200e+04 |  80.43%| unknown
  1.3s|     1 |     0 |  1819 |     - |   101M |   0 |9030 |4232 |4234 |  17 |  1 |  15 |   0 | 3.772643e+04 | 5.786200e+04 |  53.37%| unknown
  1.6s|     1 |     0 |  2634 |     - |   102M |   0 |9030 |4232 |4251 |  34 |  2 |  15 |   0 | 3.969337e+04 | 5.786200e+04 |  45.77%| unknown
  2.1s|     1 |     0 |  3699 |     - |   104M |   0 |9030 |4232 |4268 |  51 |  3 |  15 |   0 | 4.047030e+04 | 5.786200e+04 |  42.97%| unknown
  2.5s|     1 |     0 |  3955 |     - |   106M |   0 |9030 |4232 |4288 |  71 |  4 |  15 |   0 | 4.062678e+04 | 5.786200e+04 |  42.42%| unknown
  3.0s|     1 |     0 |  4297 |     - |   106M |   0 |9030 |4232 |4305 |  88 |  5 |  15 |   0 | 4.081906e+04 | 5.786200e+04 |  41.75%| unknown
  3.8s|     1 |     0 |  4574 |     - |   107M |   0 |9030 |4232 |4322 | 105 |  6 |  15 |   0 | 4.095227e+04 | 5.786200e+04 |  41.29%| unknown
  4.3s|     1 |     0 |  4994 |     - |   108M |   0 |9030 |4232 |4339 | 122 |  7 |  15 |   0 | 4.114485e+04 | 5.786200e+04 |  40.63%| unknown
  5.0s|     1 |     0 |  5261 |     - |   108M |   0 |9030 |4231 |4356 | 139 |  8 |  15 |   0 | 4.126421e+04 | 5.786200e+04 |  40.22%| unknown
  5.5s|     1 |     0 |  5471 |     - |   109M |   0 |9030 |4231 |4372 | 155 |  9 |  15 |   0 | 4.137273e+04 | 5.786200e+04 |  39.86%| unknown
  6.2s|     1 |     0 |  5714 |     - |   110M |   0 |9030 |4230 |4390 | 173 | 10 |  15 |   0 | 4.153088e+04 | 5.786200e+04 |  39.32%| unknown
  6.5s|     1 |     0 |  6144 |     - |   111M |   0 |9030 |4228 |4407 | 190 | 11 |  15 |   0 | 4.166231e+04 | 5.786200e+04 |  38.88%| unknown
  6.8s|     1 |     0 |  6659 |     - |   111M |   0 |9030 |4228 |4424 | 207 | 12 |  15 |   0 | 4.177114e+04 | 5.786200e+04 |  38.52%| unknown
 time | node  | left  |LP iter|LP it/n|mem/heur|mdpt |vars |cons |rows |cuts |sepa|confs|strbr|  dualbound   | primalbound  |  gap   | compl. 
  7.2s|     1 |     0 |  7277 |     - |   113M |   0 |9030 |4227 |4440 | 223 | 13 |  15 |   0 | 4.190244e+04 | 5.786200e+04 |  38.09%| unknown
  7.5s|     1 |     0 |  7553 |     - |   113M |   0 |9030 |4227 |4456 | 239 | 14 |  15 |   0 | 4.198180e+04 | 5.786200e+04 |  37.83%| unknown
  7.8s|     1 |     0 |  7843 |     - |   114M |   0 |9030 |4226 |4472 | 255 | 15 |  15 |   0 | 4.205809e+04 | 5.786200e+04 |  37.58%| unknown
  8.2s|     1 |     0 |  8520 |     - |   114M |   0 |9030 |4225 |4479 | 267 | 16 |  15 |   0 | 4.217337e+04 | 5.786200e+04 |  37.20%| unknown
  8.5s|     1 |     0 |  8784 |     - |   115M |   0 |9030 |4225 |4493 | 281 | 17 |  15 |   0 | 4.221465e+04 | 5.786200e+04 |  37.07%| unknown
  8.7s|     1 |     0 |  9057 |     - |   116M |   0 |9030 |4224 |4505 | 293 | 18 |  15 |   0 | 4.227643e+04 | 5.786200e+04 |  36.87%| unknown
  9.0s|     1 |     0 |  9254 |     - |   117M |   0 |9030 |4224 |4519 | 307 | 19 |  15 |   0 | 4.229909e+04 | 5.786200e+04 |  36.79%| unknown
  9.3s|     1 |     0 |  9532 |     - |   117M |   0 |9030 |4224 |4532 | 320 | 20 |  15 |   0 | 4.235766e+04 | 5.786200e+04 |  36.60%| unknown
  9.5s|     1 |     0 |  9726 |     - |   118M |   0 |9030 |4224 |4546 | 334 | 21 |  15 |   0 | 4.238834e+04 | 5.786200e+04 |  36.50%| unknown
  9.8s|     1 |     0 |  9895 |     - |   118M |   0 |9030 |4223 |4553 | 347 | 22 |  15 |   0 | 4.241537e+04 | 5.786200e+04 |  36.42%| unknown
 10.1s|     1 |     0 | 10157 |     - |   118M |   0 |9030 |4223 |4565 | 359 | 23 |  15 |   0 | 4.244466e+04 | 5.786200e+04 |  36.32%| unknown
 10.3s|     1 |     0 | 10358 |     - |   118M |   0 |9030 |4223 |4576 | 370 | 24 |  15 |   0 | 4.248588e+04 | 5.786200e+04 |  36.19%| unknown
 10.6s|     1 |     0 | 10486 |     - |   118M |   0 |9030 |4223 |4585 | 379 | 25 |  15 |   0 | 4.250567e+04 | 5.786200e+04 |  36.13%| unknown
 10.8s|     1 |     0 | 10564 |     - |   118M |   0 |9030 |4223 |4596 | 390 | 26 |  15 |   0 | 4.251654e+04 | 5.786200e+04 |  36.09%| unknown
r10.8s|     1 |     0 | 10564 |     - |rounding|   0 |9030 |4223 |4596 | 390 | 26 |  15 |   0 | 4.251654e+04 | 5.696800e+04 |  33.99%| unknown
 time | node  | left  |LP iter|LP it/n|mem/heur|mdpt |vars |cons |rows |cuts |sepa|confs|strbr|  dualbound   | primalbound  |  gap   | compl. 
r10.8s|     1 |     0 | 10564 |     - |shifting|   0 |9030 |4223 |4596 | 390 | 26 |  15 |   0 | 4.251654e+04 | 5.618700e+04 |  32.15%| unknown
 11.0s|     1 |     0 | 10695 |     - |   118M |   0 |9030 |4223 |4608 | 402 | 27 |  15 |   0 | 4.254040e+04 | 5.618700e+04 |  32.08%| unknown
 11.3s|     1 |     0 | 10824 |     - |   118M |   0 |9030 |4223 |4608 | 412 | 28 |  15 |   0 | 4.257028e+04 | 5.618700e+04 |  31.99%| unknown
 11.5s|     1 |     0 | 10966 |     - |   118M |   0 |9030 |4223 |4617 | 421 | 29 |  15 |   0 | 4.258072e+04 | 5.618700e+04 |  31.95%| unknown
 11.8s|     1 |     0 | 11102 |     - |   118M |   0 |9030 |4222 |4629 | 433 | 30 |  15 |   0 | 4.260226e+04 | 5.618700e+04 |  31.89%| unknown
 12.1s|     1 |     0 | 11283 |     - |   118M |   0 |9030 |4222 |4638 | 442 | 31 |  15 |   0 | 4.262815e+04 | 5.618700e+04 |  31.81%| unknown
 12.3s|     1 |     0 | 11407 |     - |   118M |   0 |9030 |4221 |4647 | 451 | 32 |  15 |   0 | 4.264602e+04 | 5.618700e+04 |  31.75%| unknown
 12.6s|     1 |     0 | 11663 |     - |   118M |   0 |9030 |4221 |4656 | 460 | 33 |  15 |   0 | 4.266974e+04 | 5.618700e+04 |  31.68%| unknown
 12.8s|     1 |     0 | 11805 |     - |   118M |   0 |9030 |4221 |4660 | 471 | 34 |  15 |   0 | 4.269144e+04 | 5.618700e+04 |  31.61%| unknown
 13.1s|     1 |     0 | 11874 |     - |   118M |   0 |9030 |4221 |4669 | 480 | 35 |  15 |   0 | 4.270275e+04 | 5.618700e+04 |  31.58%| unknown
 13.3s|     1 |     0 | 11981 |     - |   118M |   0 |9030 |4221 |4676 | 487 | 36 |  15 |   0 | 4.271377e+04 | 5.618700e+04 |  31.54%| unknown
 13.6s|     1 |     0 | 12045 |     - |   118M |   0 |9030 |4221 |4684 | 495 | 37 |  15 |   0 | 4.271975e+04 | 5.618700e+04 |  31.52%| unknown
 13.8s|     1 |     0 | 12166 |     - |   118M |   0 |9030 |4221 |4693 | 504 | 38 |  15 |   0 | 4.272723e+04 | 5.618700e+04 |  31.50%| unknown
 14.1s|     1 |     0 | 12195 |     - |   118M |   0 |9030 |4221 |4699 | 510 | 39 |  15 |   0 | 4.272920e+04 | 5.618700e+04 |  31.50%| unknown
 14.3s|     1 |     0 | 12262 |     - |   118M |   0 |9030 |4221 |4699 | 518 | 40 |  15 |   0 | 4.273528e+04 | 5.618700e+04 |  31.48%| unknown
 time | node  | left  |LP iter|LP it/n|mem/heur|mdpt |vars |cons |rows |cuts |sepa|confs|strbr|  dualbound   | primalbound  |  gap   | compl. 
 14.6s|     1 |     0 | 12347 |     - |   118M |   0 |9030 |4221 |4706 | 525 | 41 |  15 |   0 | 4.274045e+04 | 5.618700e+04 |  31.46%| unknown
 14.8s|     1 |     0 | 12465 |     - |   118M |   0 |9030 |4221 |4714 | 533 | 42 |  15 |   0 | 4.274720e+04 | 5.618700e+04 |  31.44%| unknown
 15.1s|     1 |     0 | 12544 |     - |   118M |   0 |9030 |4221 |4719 | 538 | 43 |  15 |   0 | 4.275622e+04 | 5.618700e+04 |  31.41%| unknown
 15.3s|     1 |     0 | 12551 |     - |   118M |   0 |9030 |4221 |4723 | 542 | 44 |  15 |   0 | 4.275692e+04 | 5.618700e+04 |  31.41%| unknown
r15.4s|     1 |     0 | 12551 |     - |rounding|   0 |9030 |4221 |4723 | 542 | 44 |  15 |   0 | 4.275692e+04 | 5.469500e+04 |  27.92%| unknown
 15.6s|     1 |     0 | 12553 |     - |   118M |   0 |9030 |4221 |4724 | 543 | 45 |  15 |   0 | 4.275706e+04 | 5.469500e+04 |  27.92%| unknown
r15.6s|     1 |     0 | 12553 |     - |rounding|   0 |9030 |4221 |4724 | 543 | 45 |  15 |   0 | 4.275706e+04 | 5.462400e+04 |  27.75%| unknown
 15.8s|     1 |     0 | 12554 |     - |   118M |   0 |9030 |4221 |4715 | 544 | 46 |  15 |   0 | 4.275706e+04 | 5.462400e+04 |  27.75%| unknown
d16.4s|     1 |     0 | 13454 |     - |farkasdi|   0 |9030 |4220 |4715 |   0 | 48 |  15 |   0 | 4.275706e+04 | 4.370000e+04 |   2.21%| unknown
 18.2s|     1 |     0 | 16529 |     - |   120M |   0 |9030 |4228 |4715 | 544 | 48 |  23 |   0 | 4.275706e+04 | 4.370000e+04 |   2.21%| unknown
 18.2s|     1 |     0 | 16529 |     - |   120M |   0 |9030 |4228 |4660 | 544 | 48 |  23 |   0 | 4.275706e+04 | 4.370000e+04 |   2.21%| unknown
 20.7s|     1 |     2 | 16529 |     - |   120M |   0 |9030 |4173 |4660 | 544 | 50 |  23 |  20 | 4.288831e+04 | 4.370000e+04 |   1.89%| unknown
*40.3s|     6 |     5 | 18007 |1143.0 |strongbr|   4 |9030 |4194 |4630 | 544 | 20 |  44 | 373 | 4.293783e+04 | 4.369000e+04 |   1.75%| unknown
*50.3s|    11 |     4 | 20168 | 787.6 |strongbr|   5 |9030 |4207 |4630 | 544 |  5 |  57 | 575 | 4.293783e+04 | 4.368600e+04 |   1.74%|  24.66%
r50.4s|    11 |     4 | 20172 | 788.0 |rounding|   5 |9030 |4213 |4630 | 544 |  5 |  63 | 580 | 4.293783e+04 | 4.356100e+04 |   1.45%|  24.66%
 time | node  | left  |LP iter|LP it/n|mem/heur|mdpt |vars |cons |rows |cuts |sepa|confs|strbr|  dualbound   | primalbound  |  gap   | compl. 
*68.9s|    57 |     4 | 26553 | 254.7 |    LP  |  10 |9030 |3944 |4636 | 564 |  1 |  94 | 805 | 4.305309e+04 | 4.345800e+04 |   0.94%|  64.91%
*69.9s|    75 |     2 | 28468 | 218.6 |    LP  |  10 |9030 |3940 |4636 | 571 |  2 |  94 | 805 | 4.313548e+04 | 4.316800e+04 |   0.08%|  79.03%

SCIP Status        : problem is solved [optimal solution found]
Solving Time (sec) : 69.92
Solving Nodes      : 77
Primal Bound       : +4.31680000000000e+04 (18 solutions)
Dual Bound         : +4.31680000000000e+04
Gap                : 0.00 %
Solve Status: optimal
Solve Time: 69.92 seconds
